<number of tasks>
20

<cycle time>
1000

<order strength>
0,521


<task times>
1 157
2 157
3 127
4 138
5 130
6 31
7 68
8 186
9 45
10 182
11 191
12 173
13 85
14 115
15 114
16 56
17 172
18 256
19 214
20 220

<precedence relations>
1,4
1,5
2,3
2,4
3,14
4,7
4,8
5,6
5,9
6,14
7,14
8,10
8,12
8,13
9,11
10,14
12,14
13,15
14,16
14,17
14,18
14,19
14,20

<end>
